; PUSH cw_2 SWAP1 DUP3 SWAP1 DUP3 => DUP2 PUSH cw_2 SWAP2 PUSH cw_2
(set-option :produce-proofs true)
; 
(set-info :status unknown)
(declare-fun storage_t ((_ BitVec 256) (_ BitVec 256) (_ BitVec 256) Int (_ BitVec 256)) (_ BitVec 256))
(declare-fun w_2 () (_ BitVec 256))
(declare-fun storage_s ((_ BitVec 256) (_ BitVec 256) (_ BitVec 256) Int (_ BitVec 256)) (_ BitVec 256))
(declare-fun exc_halt_t (Int) Bool)
(declare-fun exc_halt_s (Int) Bool)
(declare-fun sc_t (Int) (_ BitVec 6))
(declare-fun stack_t ((_ BitVec 256) (_ BitVec 256) (_ BitVec 256) Int (_ BitVec 6)) (_ BitVec 256))
(declare-fun stack_s ((_ BitVec 256) (_ BitVec 256) (_ BitVec 256) Int (_ BitVec 6)) (_ BitVec 256))
(declare-fun sc_s (Int) (_ BitVec 6))
(declare-fun used_gas_t ((_ BitVec 256) (_ BitVec 256) (_ BitVec 256) Int) Int)
(declare-fun used_gas_s ((_ BitVec 256) (_ BitVec 256) (_ BitVec 256) Int) Int)
(assert
 (exists ((x_0 (_ BitVec 256)) (x_1 (_ BitVec 256)) )(let (($x10064 (forall ((w (_ BitVec 256)) )(let ((?x5115 (storage_t x_0 x_1 w_2 4 w)))
 (let ((?x8838 (storage_s x_0 x_1 w_2 5 w)))
 (= ?x8838 ?x5115))))
 ))
 (let (($x3723 (exc_halt_t 4)))
 (let (($x11317 (exc_halt_s 5)))
 (let (($x7362 (= $x11317 $x3723)))
 (let (($x1517 (forall ((n (_ BitVec 6)) )(let ((?x10007 (stack_t x_0 x_1 w_2 4 n)))
 (let ((?x9986 (stack_s x_0 x_1 w_2 5 n)))
 (let (($x3482 (= ?x9986 ?x10007)))
 (or $x3482 (bvsle (sc_t 4) n))))))
 ))
 (let ((?x1098 (sc_t 4)))
 (let ((?x4319 (sc_s 5)))
 (let (($x11451 (= ?x4319 ?x1098)))
 (let ((?x10316 (used_gas_t x_0 x_1 w_2 0)))
 (let ((?x3938 (used_gas_s x_0 x_1 w_2 0)))
 (let (($x3843 (= ?x3938 ?x10316)))
 (let (($x134 (forall ((w (_ BitVec 256)) )(let ((?x1355 (storage_t x_0 x_1 w_2 0 w)))
 (let ((?x8334 (storage_s x_0 x_1 w_2 0 w)))
 (= ?x8334 ?x1355))))
 ))
 (let (($x56 (exc_halt_t 0)))
 (let (($x57 (exc_halt_s 0)))
 (let (($x58 (= $x57 $x56)))
 (let (($x2076 (forall ((n (_ BitVec 6)) )(let ((?x1026 (stack_t x_0 x_1 w_2 0 n)))
 (let ((?x836 (stack_s x_0 x_1 w_2 0 n)))
 (let (($x8775 (= ?x836 ?x1026)))
 (or (bvsle (sc_t 0) n) $x8775)))))
 ))
 (let ((?x63 (sc_t 0)))
 (let ((?x72 (sc_s 0)))
 (let (($x73 (= ?x72 ?x63)))
 (let (($x6783 (exc_halt_t 3)))
 (let (($x9744 (or $x6783 (not (= ((_ extract 6 6) (bvadd (_ bv1 7) (concat (_ bv0 1) (sc_t 3)))) (_ bv0 1))))))
 (let (($x452 (forall ((w (_ BitVec 256)) )(let ((?x8979 (storage_t x_0 x_1 w_2 3 w)))
 (let ((?x5115 (storage_t x_0 x_1 w_2 4 w)))
 (= ?x5115 ?x8979))))
 ))
 (let (($x10410 (forall ((n (_ BitVec 6)) )(let ((?x5712 (stack_t x_0 x_1 w_2 3 n)))
 (let ((?x10007 (stack_t x_0 x_1 w_2 4 n)))
 (or (= ?x10007 ?x5712) (bvsle (sc_t 3) n)))))
 ))
 (let (($x481 (= (used_gas_t x_0 x_1 w_2 4) (+ 3 (used_gas_t x_0 x_1 w_2 3)))))
 (let (($x2814 (= $x6783 (or (exc_halt_t 2) (not (bvsle (_ bv0 6) (bvadd (_ bv61 6) (sc_t 2))))))))
 (let (($x1528 (forall ((w (_ BitVec 256)) )(let ((?x1592 (storage_t x_0 x_1 w_2 2 w)))
 (let ((?x8979 (storage_t x_0 x_1 w_2 3 w)))
 (= ?x8979 ?x1592))))
 ))
 (let (($x2693 (forall ((n (_ BitVec 6)) )(let ((?x5935 (stack_t x_0 x_1 w_2 2 n)))
 (let ((?x5712 (stack_t x_0 x_1 w_2 3 n)))
 (or (bvsle (bvadd (_ bv61 6) (sc_t 2)) n) (= ?x5712 ?x5935)))))
 ))
 (let ((?x4964 (used_gas_t x_0 x_1 w_2 3)))
 (let (($x4419 (= (stack_t x_0 x_1 w_2 3 (bvadd (_ bv62 6) (sc_t 3))) (stack_t x_0 x_1 w_2 2 (bvadd (_ bv62 6) (sc_t 2))))))
 (let (($x8857 (= (stack_t x_0 x_1 w_2 3 (bvadd (_ bv61 6) (sc_t 3))) (stack_t x_0 x_1 w_2 2 (bvadd (_ bv63 6) (sc_t 2))))))
 (let (($x4406 (= (stack_t x_0 x_1 w_2 3 (bvadd (_ bv63 6) (sc_t 3))) (stack_t x_0 x_1 w_2 2 (bvadd (_ bv61 6) (sc_t 2))))))
 (let (($x3508 (exc_halt_t 1)))
 (let (($x9267 (or $x3508 (not (= ((_ extract 6 6) (bvadd (_ bv1 7) (concat (_ bv0 1) (sc_t 1)))) (_ bv0 1))))))
 (let (($x5252 (exc_halt_t 2)))
 (let (($x8011 (forall ((w (_ BitVec 256)) )(let ((?x4622 (storage_t x_0 x_1 w_2 1 w)))
 (let ((?x1592 (storage_t x_0 x_1 w_2 2 w)))
 (= ?x1592 ?x4622))))
 ))
 (let (($x1289 (forall ((n (_ BitVec 6)) )(let ((?x5455 (stack_t x_0 x_1 w_2 1 n)))
 (let ((?x5935 (stack_t x_0 x_1 w_2 2 n)))
 (or (bvsle (sc_t 1) n) (= ?x5935 ?x5455)))))
 ))
 (let ((?x4026 (used_gas_t x_0 x_1 w_2 2)))
 (let (($x647 (or $x56 (not (bvsle (_ bv0 6) (bvadd (_ bv62 6) ?x63))) (not (= ((_ extract 6 6) (bvadd (_ bv1 7) (concat (_ bv0 1) ?x63))) (_ bv0 1))))))
 (let (($x11066 (forall ((w (_ BitVec 256)) )(let ((?x1355 (storage_t x_0 x_1 w_2 0 w)))
 (let ((?x4622 (storage_t x_0 x_1 w_2 1 w)))
 (= ?x4622 ?x1355))))
 ))
 (let (($x5064 (forall ((n (_ BitVec 6)) )(let ((?x1026 (stack_t x_0 x_1 w_2 0 n)))
 (let ((?x5455 (stack_t x_0 x_1 w_2 1 n)))
 (or (= ?x5455 ?x1026) (bvsle (bvadd (_ bv62 6) (sc_t 0)) n)))))
 ))
 (let (($x8483 (= (stack_t x_0 x_1 w_2 1 (bvadd (_ bv63 6) ?x63)) (stack_t x_0 x_1 w_2 0 (bvadd (_ bv63 6) ?x63)))))
 (let ((?x10150 (bvadd (_ bv62 6) ?x63)))
 (let ((?x7710 (stack_t x_0 x_1 w_2 0 ?x10150)))
 (let (($x7172 (exc_halt_s 4)))
 (let (($x5067 (or (not (= ((_ extract 6 6) (bvadd (_ bv1 7) (concat (_ bv0 1) (sc_s 4)))) (_ bv0 1))) (not (bvsle (_ bv0 6) (bvadd (_ bv61 6) (sc_s 4)))) $x7172)))
 (let (($x2220 (forall ((w (_ BitVec 256)) )(let ((?x4733 (storage_s x_0 x_1 w_2 4 w)))
 (let ((?x8838 (storage_s x_0 x_1 w_2 5 w)))
 (= ?x8838 ?x4733))))
 ))
 (let (($x8379 (forall ((n (_ BitVec 6)) )(let ((?x7580 (stack_s x_0 x_1 w_2 4 n)))
 (let ((?x9986 (stack_s x_0 x_1 w_2 5 n)))
 (or (bvsle (bvadd (_ bv61 6) (sc_s 4)) n) (= ?x9986 ?x7580)))))
 ))
 (let (($x1780 (= (used_gas_s x_0 x_1 w_2 5) (+ 3 (used_gas_s x_0 x_1 w_2 4)))))
 (let ((?x4305 (sc_s 4)))
 (let ((?x1400 (bvadd (_ bv63 6) ?x4305)))
 (let ((?x5654 (stack_s x_0 x_1 w_2 4 ?x1400)))
 (let ((?x1788 (bvadd (_ bv62 6) ?x4305)))
 (let ((?x8512 (stack_s x_0 x_1 w_2 4 ?x1788)))
 (let ((?x142 (bvadd (_ bv61 6) ?x4305)))
 (let ((?x5202 (stack_s x_0 x_1 w_2 4 ?x142)))
 (let (($x2185 (= $x7172 (or (exc_halt_s 3) (not (bvsle (_ bv0 6) (bvadd (_ bv62 6) (sc_s 3))))))))
 (let (($x5042 (forall ((w (_ BitVec 256)) )(let ((?x8722 (storage_s x_0 x_1 w_2 3 w)))
 (let ((?x4733 (storage_s x_0 x_1 w_2 4 w)))
 (= ?x4733 ?x8722))))
 ))
 (let (($x3399 (forall ((n (_ BitVec 6)) )(let ((?x9164 (stack_s x_0 x_1 w_2 3 n)))
 (let ((?x7580 (stack_s x_0 x_1 w_2 4 n)))
 (or (bvsle (bvadd (_ bv62 6) (sc_s 3)) n) (= ?x7580 ?x9164)))))
 ))
 (let ((?x3887 (used_gas_s x_0 x_1 w_2 4)))
 (let (($x247 (exc_halt_s 2)))
 (let (($x1686 (or $x247 (not (= ((_ extract 6 6) (bvadd (_ bv1 7) (concat (_ bv0 1) (sc_s 2)))) (_ bv0 1))) (not (bvsle (_ bv0 6) (bvadd (_ bv61 6) (sc_s 2)))))))
 (let (($x292 (exc_halt_s 3)))
 (let (($x10008 (forall ((w (_ BitVec 256)) )(let ((?x11847 (storage_s x_0 x_1 w_2 2 w)))
 (let ((?x8722 (storage_s x_0 x_1 w_2 3 w)))
 (= ?x8722 ?x11847))))
 ))
 (let (($x7984 (forall ((n (_ BitVec 6)) )(let ((?x3677 (stack_s x_0 x_1 w_2 2 n)))
 (let ((?x9164 (stack_s x_0 x_1 w_2 3 n)))
 (or (bvsle (bvadd (_ bv61 6) (sc_s 2)) n) (= ?x9164 ?x3677)))))
 ))
 (let ((?x3027 (used_gas_s x_0 x_1 w_2 3)))
 (let ((?x218 (sc_s 2)))
 (let ((?x6273 (bvadd (_ bv63 6) ?x218)))
 (let ((?x1090 (stack_s x_0 x_1 w_2 2 ?x6273)))
 (let ((?x6994 (bvadd (_ bv62 6) ?x218)))
 (let ((?x2295 (stack_s x_0 x_1 w_2 2 ?x6994)))
 (let ((?x1288 (bvadd (_ bv61 6) ?x218)))
 (let ((?x4589 (stack_s x_0 x_1 w_2 2 ?x1288)))
 (let (($x1299 (= $x247 (or (exc_halt_s 1) (not (bvsle (_ bv0 6) (bvadd (_ bv62 6) (sc_s 1))))))))
 (let (($x1945 (forall ((w (_ BitVec 256)) )(let ((?x8162 (storage_s x_0 x_1 w_2 1 w)))
 (let ((?x11847 (storage_s x_0 x_1 w_2 2 w)))
 (= ?x11847 ?x8162))))
 ))
 (let (($x1962 (forall ((n (_ BitVec 6)) )(let ((?x1376 (stack_s x_0 x_1 w_2 1 n)))
 (let ((?x3677 (stack_s x_0 x_1 w_2 2 n)))
 (or (= ?x3677 ?x1376) (bvsle (bvadd (_ bv62 6) (sc_s 1)) n)))))
 ))
 (let ((?x5578 (used_gas_s x_0 x_1 w_2 2)))
 (let (($x189 (exc_halt_s 1)))
 (let (($x6475 (= $x189 (or $x57 (not (= ((_ extract 6 6) (bvadd (_ bv1 7) (concat (_ bv0 1) ?x72))) (_ bv0 1)))))))
 (let (($x5768 (forall ((w (_ BitVec 256)) )(let ((?x8334 (storage_s x_0 x_1 w_2 0 w)))
 (let ((?x8162 (storage_s x_0 x_1 w_2 1 w)))
 (= ?x8162 ?x8334))))
 ))
 (let (($x8035 (forall ((n (_ BitVec 6)) )(let ((?x836 (stack_s x_0 x_1 w_2 0 n)))
 (let ((?x1376 (stack_s x_0 x_1 w_2 1 n)))
 (or (bvsle (sc_s 0) n) (= ?x1376 ?x836)))))
 ))
 (let (($x2719 (forall ((w (_ BitVec 256)) )(let ((?x8334 (storage_s x_0 x_1 w_2 0 w)))
 (= ?x8334 (_ bv0 256))))
 ))
 (let (($x1056 (= ?x3938 0)))
 (let (($x3924 (= (stack_s x_0 x_1 w_2 0 (_ bv1 6)) x_1)))
 (let (($x3323 (= (stack_s x_0 x_1 w_2 0 (_ bv0 6)) x_0)))
 (let (($x6396 (= ?x72 (_ bv2 6))))
 (and $x6396 $x3323 $x3924 (not $x57) $x1056 $x2719 (= (stack_s x_0 x_1 w_2 1 ?x72) w_2) (= (used_gas_s x_0 x_1 w_2 1) (+ 3 ?x3938)) (= (sc_s 1) (bvadd (_ bv1 6) ?x72)) $x8035 $x5768 $x6475 (= ?x1090 (stack_s x_0 x_1 w_2 1 (bvadd (_ bv62 6) (sc_s 1)))) (= ?x2295 (stack_s x_0 x_1 w_2 1 (bvadd (_ bv63 6) (sc_s 1)))) (= ?x5578 (+ 3 (used_gas_s x_0 x_1 w_2 1))) (= ?x218 (sc_s 1)) $x1962 $x1945 $x1299 (= (stack_s x_0 x_1 w_2 3 (bvadd (_ bv63 6) (sc_s 3))) ?x4589) (= (stack_s x_0 x_1 w_2 3 ?x1288) ?x4589) (= (stack_s x_0 x_1 w_2 3 ?x6994) ?x2295) (= (stack_s x_0 x_1 w_2 3 ?x6273) ?x1090) (= ?x3027 (+ 3 ?x5578)) (= (sc_s 3) (bvadd (_ bv1 6) ?x218)) $x7984 $x10008 (= $x292 $x1686) (= ?x5654 (stack_s x_0 x_1 w_2 3 (bvadd (_ bv62 6) (sc_s 3)))) (= ?x8512 (stack_s x_0 x_1 w_2 3 (bvadd (_ bv63 6) (sc_s 3)))) (= ?x3887 (+ 3 ?x3027)) (= ?x4305 (sc_s 3)) $x3399 $x5042 $x2185 (= (stack_s x_0 x_1 w_2 5 (bvadd (_ bv63 6) ?x4319)) ?x5202) (= (stack_s x_0 x_1 w_2 5 ?x142) ?x5202) (= (stack_s x_0 x_1 w_2 5 ?x1788) ?x8512) (= (stack_s x_0 x_1 w_2 5 ?x1400) ?x5654) $x1780 (= ?x4319 (bvadd (_ bv1 6) ?x4305)) $x8379 $x2220 (= $x11317 $x5067) (= (stack_t x_0 x_1 w_2 1 (bvadd (_ bv63 6) (sc_t 1))) ?x7710) (= (stack_t x_0 x_1 w_2 1 ?x10150) ?x7710) $x8483 (= (used_gas_t x_0 x_1 w_2 1) (+ 3 ?x10316)) (= (sc_t 1) (bvadd (_ bv1 6) ?x63)) $x5064 $x11066 (= $x3508 $x647) (= (stack_t x_0 x_1 w_2 2 (sc_t 1)) w_2) (= ?x4026 (+ 3 (used_gas_t x_0 x_1 w_2 1))) (= (sc_t 2) (bvadd (_ bv1 6) (sc_t 1))) $x1289 $x8011 (= $x5252 $x9267) $x4406 $x8857 $x4419 (= ?x4964 (+ 3 ?x4026)) (= (sc_t 3) (sc_t 2)) $x2693 $x1528 $x2814 (= (stack_t x_0 x_1 w_2 4 (sc_t 3)) w_2) $x481 (= ?x1098 (bvadd (_ bv1 6) (sc_t 3))) $x10410 $x452 (= $x3723 $x9744) $x73 $x2076 $x58 $x134 $x3843 (not (and $x11451 $x1517 $x7362 $x10064)))))))))))))))))))))))))))))))))))))))))))))))))))))))))))))))))))))))))))))))))))))))))
 )
(check-sat)
(get-proof)
